
===== New CPLEX run =====
Instance: /home/yorig/tuner/mpils-tests/instances/miplib/easy/mas74.mps
Config: /scratch/yorig/mpils-results-grid-seconds-5-watchdog/easy/8proc/seed-2/5_mas74_seed-2_20260504_031955/expansion/config_param_CPXPARAM_MIP_OrderType_2_iter_5.prm
========================

Selected objective sense:  MINIMIZE
Selected objective  name:  obj
Selected RHS        name:  rhs
Selected bound      name:  bnd
Wall watchdog: enabled factor=1 grace=1 limit=6 seconds
Version identifier: 22.1.2.0 | 2024-11-26 | 0edbb82fd
CPXPARAM_Preprocessing_Dual                      1
CPXPARAM_Threads                                 8
CPXPARAM_Parallel                                1
CPXPARAM_MIP_Cuts_Cliques                        1
CPXPARAM_MIP_OrderType                           2
CPXPARAM_MIP_Cuts_FlowCovers                     -1
CPXPARAM_MIP_Cuts_Implied                        2
CPXPARAM_MIP_Limits_GomoryCand                   25
CPXPARAM_MIP_Cuts_PathCut                        1
CPXPARAM_MIP_Cuts_MIRCut                         2
CPXPARAM_MIP_Cuts_Disjunctive                    1
CPXPARAM_Emphasis_MIP                            3
CPXPARAM_Barrier_StartAlg                        4
CPXPARAM_Preprocessing_Fill                      2
CPXPARAM_MIP_Strategy_RINSHeur                   -1
CPXPARAM_TimeLimit                               5
CPXPARAM_MIP_Limits_CutsFactor                   1
Generated priority order by increasing bound range.
Found incumbent of value 157344.610330 after 0.00 sec. (0.02 ticks)
Tried aggregator 1 time.
MIP Presolve eliminated 0 rows and 3 columns.
Reduced MIP has 13 rows, 148 columns, and 1682 nonzeros.
Reduced MIP has 145 binaries, 2 generals, 0 SOSs, and 0 indicators.
Presolve time = 0.00 sec. (0.84 ticks)
Probing time = 0.00 sec. (0.09 ticks)
Tried aggregator 1 time.
Detecting symmetries...
Reduced MIP has 13 rows, 148 columns, and 1682 nonzeros.
Reduced MIP has 145 binaries, 2 generals, 0 SOSs, and 0 indicators.
Presolve time = 0.00 sec. (0.79 ticks)
Probing time = 0.00 sec. (0.09 ticks)
MIP emphasis: best bound.
MIP search method: dynamic search.
Parallel mode: deterministic, using up to 8 threads.
Root relaxation solution time = 0.00 sec. (2.98 ticks)

        Nodes                                         Cuts/
   Node  Left     Objective  IInf  Best Integer    Best Bound    ItCnt     Gap

*     0+    0                       157344.6103        0.0000           100.00%
*     0+    0                        51840.4943        0.0000           100.00%
      0     0    10482.7953    12    51840.4943    10482.7953      113   79.78%
*     0+    0                        19197.4680    10482.7953            45.39%
*     0+    0                        15240.3317    10482.7953            31.22%
*     0+    0                        14372.8713    10482.7953            27.07%
Detecting symmetries...
      0     2    10482.7953    12    14372.8713    10513.0180      113   26.86%
Elapsed time = 0.01 sec. (9.26 ticks, tree = 0.02 MB, solutions = 5)
*     5+    1                        13279.7434    10526.8584            20.73%
*    20+    7                        12915.1000    10526.8584            18.49%
*   408+  281                        12722.7434    10637.5738            16.39%
*  1008+  667                        12536.2311    10655.9893            15.00%
*  1061+  637                        12517.9319    10700.0198            14.52%

Performing restart 1

Repeating presolve.
Tried aggregator 1 time.
MIP Presolve eliminated 0 rows and 33 columns.
Reduced MIP has 13 rows, 115 columns, and 1256 nonzeros.
Reduced MIP has 112 binaries, 2 generals, 0 SOSs, and 0 indicators.
Presolve time = 0.00 sec. (0.45 ticks)
Tried aggregator 1 time.
Reduced MIP has 13 rows, 115 columns, and 1256 nonzeros.
Reduced MIP has 112 binaries, 2 generals, 0 SOSs, and 0 indicators.
Presolve time = 0.00 sec. (0.57 ticks)
Represolve time = 0.00 sec. (1.40 ticks)
*  2548+  111                        12464.1000    10747.9884            13.77%
*  4124+ 1330                        12235.2561    10755.1299            12.10%
*  4890+ 1850                        12180.1000    10779.1377            11.50%
* 11635+ 8615                        12039.4680    10931.0082             9.21%
  14886 11158    11083.4447    12    12039.4680    10969.8906    89060    8.88%
* 21410+17588                        11983.5292    11030.1096             7.96%
* 21998+18657                        11891.2631    11035.2318             7.20%
* 31279+26855                        11877.6944    11085.1478             6.67%
  32251 27631        cutoff          11877.6944    11085.1478   202342    6.67%

Performing restart 2

Repeating presolve.
Tried aggregator 1 time.
MIP Presolve eliminated 0 rows and 14 columns.
Reduced MIP has 13 rows, 101 columns, and 1080 nonzeros.
Reduced MIP has 99 binaries, 1 generals, 0 SOSs, and 0 indicators.
Presolve time = 0.00 sec. (0.37 ticks)
Tried aggregator 1 time.
Reduced MIP has 13 rows, 101 columns, and 1080 nonzeros.
Reduced MIP has 99 binaries, 1 generals, 0 SOSs, and 0 indicators.
Presolve time = 0.00 sec. (0.49 ticks)
Represolve time = 0.01 sec. (1.45 ticks)
* 48896+11611                        11857.3713    11107.3992             6.32%
  50581 12865    11376.2627    12    11857.3713    11107.3992   321370    6.32%
  72751 32869    11195.1182    11    11857.3713    11132.6934   459097    6.11%
  94466 52264    11249.1300    10    11857.3713    11192.6415   593684    5.61%
 115800 70852    11299.9424    11    11857.3713    11232.5494   724606    5.27%
 137104 90312    11306.5184    12    11857.3713    11264.8854   863573    5.00%
 158352 108082    11363.5533    11    11857.3713    11290.1641   993224    4.78%
 179782 125522    11334.1756    11    11857.3713    11311.3205  1119006    4.61%
 264350 193821    11591.7191    12    11857.3713    11376.0616  1630761    4.06%
Elapsed time = 3.34 sec. (3108.81 ticks, tree = 45.48 MB, solutions = 25)
*291638+214258                        11801.1857    11391.5826             3.47%
 345121 243980    11460.1620    11    11801.1857    11421.3713  2091153    3.22%

Clique cuts applied:  0
Implied bound cuts applied:  0
Mixed integer rounding cuts applied:  0
Flow path cuts applied:  0
Disjunctive cuts applied:  0
Cone linearizations applied:  0

Root node processing (before b&c):
  Real time             =    0.01 sec. (9.23 ticks)
Parallel b&c, 8 threads:
  Real time             =    4.99 sec. (4449.40 ticks)
  Sync time (average)   =    0.88 sec.
  Wait time (average)   =    0.00 sec.
                          ------------
Total (root+branch&cut) =    5.00 sec. (4458.63 ticks)
Gap: 3.15%
Upper bound: 11801.2
Lower bound: 11429
Termination status: Normal
End of CPLEX run. Time: 5.00282 seconds

===== New CPLEX run =====
Instance: /home/yorig/tuner/mpils-tests/instances/miplib/easy/mas74.mps
Config: /scratch/yorig/mpils-results-grid-seconds-5-watchdog/easy/8proc/seed-2/5_mas74_seed-2_20260504_031955/expansion/config_param_CPXPARAM_MIP_OrderType_3_iter_5.prm
========================

Selected objective sense:  MINIMIZE
Selected objective  name:  obj
Selected RHS        name:  rhs
Selected bound      name:  bnd
Wall watchdog: enabled factor=1 grace=1 limit=6 seconds
Version identifier: 22.1.2.0 | 2024-11-26 | 0edbb82fd
CPXPARAM_Preprocessing_Dual                      1
CPXPARAM_Threads                                 8
CPXPARAM_Parallel                                1
CPXPARAM_MIP_Cuts_Cliques                        1
CPXPARAM_MIP_OrderType                           3
CPXPARAM_MIP_Cuts_FlowCovers                     -1
CPXPARAM_MIP_Cuts_Implied                        2
CPXPARAM_MIP_Limits_GomoryCand                   25
CPXPARAM_MIP_Cuts_PathCut                        1
CPXPARAM_MIP_Cuts_MIRCut                         2
CPXPARAM_MIP_Cuts_Disjunctive                    1
CPXPARAM_Emphasis_MIP                            3
CPXPARAM_Barrier_StartAlg                        4
CPXPARAM_Preprocessing_Fill                      2
CPXPARAM_MIP_Strategy_RINSHeur                   -1
CPXPARAM_TimeLimit                               5
CPXPARAM_MIP_Limits_CutsFactor                   1
Generated priority order by increasing cost per coefficient count.
Found incumbent of value 157344.610330 after 0.00 sec. (0.02 ticks)
Tried aggregator 1 time.
MIP Presolve eliminated 0 rows and 3 columns.
Reduced MIP has 13 rows, 148 columns, and 1682 nonzeros.
Reduced MIP has 145 binaries, 2 generals, 0 SOSs, and 0 indicators.
Presolve time = 0.00 sec. (0.84 ticks)
Probing time = 0.00 sec. (0.09 ticks)
Tried aggregator 1 time.
Detecting symmetries...
Reduced MIP has 13 rows, 148 columns, and 1682 nonzeros.
Reduced MIP has 145 binaries, 2 generals, 0 SOSs, and 0 indicators.
Presolve time = 0.00 sec. (0.79 ticks)
Probing time = 0.00 sec. (0.09 ticks)
MIP emphasis: best bound.
MIP search method: dynamic search.
Parallel mode: deterministic, using up to 8 threads.
Root relaxation solution time = 0.00 sec. (2.98 ticks)

        Nodes                                         Cuts/
   Node  Left     Objective  IInf  Best Integer    Best Bound    ItCnt     Gap

*     0+    0                       157344.6103        0.0000           100.00%
*     0+    0                        51840.4943        0.0000           100.00%
      0     0    10482.7953    12    51840.4943    10482.7953      113   79.78%
*     0+    0                        19197.4680    10482.7953            45.39%
*     0+    0                        15240.3317    10482.7953            31.22%
*     0+    0                        14372.8713    10482.7953            27.07%
Detecting symmetries...
      0     2    10482.7953    12    14372.8713    10513.0180      113   26.86%
Elapsed time = 0.01 sec. (9.26 ticks, tree = 0.02 MB, solutions = 5)
*     6+    2                        12872.0227    10513.0180            18.33%
*   348+  113                        12349.4486    10547.9099            14.59%

Performing restart 1

Repeating presolve.
Tried aggregator 1 time.
MIP Presolve eliminated 0 rows and 35 columns.
Reduced MIP has 13 rows, 113 columns, and 1230 nonzeros.
Reduced MIP has 110 binaries, 2 generals, 0 SOSs, and 0 indicators.
Presolve time = 0.00 sec. (0.44 ticks)
Tried aggregator 1 time.
Reduced MIP has 13 rows, 113 columns, and 1230 nonzeros.
Reduced MIP has 110 binaries, 2 generals, 0 SOSs, and 0 indicators.
Presolve time = 0.00 sec. (0.56 ticks)
Represolve time = 0.00 sec. (1.36 ticks)
* 17899+13351                        12291.0216    10748.2798            12.55%
  20191 13239    10934.0036    10    12291.0216    10757.7107    79125   12.48%
  47299 39283    10994.2554    12    12291.0216    10805.2415   209880   12.09%
* 47527+34525                        12161.3713    10805.2415            11.15%
  73047 59151    11008.1206    12    12161.3713    10830.2203   310089   10.95%

Performing restart 2

Repeating presolve.
Tried aggregator 1 time.
MIP Presolve eliminated 0 rows and 7 columns.
Reduced MIP has 13 rows, 106 columns, and 1144 nonzeros.
Reduced MIP has 104 binaries, 1 generals, 0 SOSs, and 0 indicators.
Presolve time = 0.00 sec. (0.39 ticks)
Tried aggregator 1 time.
Reduced MIP has 13 rows, 106 columns, and 1144 nonzeros.
Reduced MIP has 104 binaries, 1 generals, 0 SOSs, and 0 indicators.
Presolve time = 0.00 sec. (0.52 ticks)
Represolve time = 0.01 sec. (1.47 ticks)
  92575 13227    10910.6742    10    12161.3713    10841.8712   441816   10.85%
 119148 39838    10922.8321    12    12161.3713    10841.8712   574563   10.85%
 145985 62002    11029.3268    12    12161.3713    10841.8712   685021   10.85%
 173088 87129    10999.3711    11    12161.3713    10868.8776   810940   10.63%
 200517 117455    10977.0945    12    12161.3713    10899.3149   963381   10.38%
 228043 146397    10966.4456     9    12161.3713    10923.7294  1108294   10.18%
 337646 241083    11091.7918    10    12161.3713    10968.8266  1581750    9.81%
Elapsed time = 2.61 sec. (3108.81 ticks, tree = 56.02 MB, solutions = 17)
*346259+253196                        12014.8924    10971.5529             8.68%
 443382 348238    11171.2904    11    12014.8924    10999.1862  2123020    8.45%
 548745 449761    11119.3499    12    12014.8924    11024.3891  2629343    8.24%
*572905+480151                        11931.3713    11033.0905             7.53%

Clique cuts applied:  0
Implied bound cuts applied:  0
Mixed integer rounding cuts applied:  0
Flow path cuts applied:  0
Disjunctive cuts applied:  0
Cone linearizations applied:  0

Root node processing (before b&c):
  Real time             =    0.01 sec. (9.22 ticks)
Parallel b&c, 8 threads:
  Real time             =    4.99 sec. (5703.98 ticks)
  Sync time (average)   =    0.46 sec.
  Wait time (average)   =    0.01 sec.
                          ------------
Total (root+branch&cut) =    5.00 sec. (5713.20 ticks)
Gap: 7.5%
Upper bound: 11931.4
Lower bound: 11037
Termination status: Normal
End of CPLEX run. Time: 5.00343 seconds
